p cnf 7230 17
-2806 -2814 3395 0
-2090 -2812 -3400 0
-2088 -2810 -3398 0
-2808 -3272 -3396 0
2090 -3401 0
2088 -3399 0
2808 -3397 0
3400 3401 0
3398 3399 0
3396 3397 0
2812 -3401 0
2810 -3399 0
3272 -3397 0
-3394 -3395 0
3274 -3403 0
2816 -3403 0
3394 3395 0
